200
300
240
240
239
239
234
234
233
233
232
232
228
227
226
226
221
219
219
218
217
214
214
213
213
212
212
212
212
211
210
210
206
205
204
204
200
199
195
193
193
192
191
190
189
188
188
187
186
186
186
184
182
182
182
182
182
180
178
177
177
176
176
176
175
174
172
171
171
171
170
170
170
166
164
164
160
160
159
158
158
156
155
154
154
153
152
150
150
149
148
147
147
146
146
143
142
139
138
137
136
130
129
128
128
127
124
122
122
120
120
119
117
116
116
113
111
110
110
109
108
107
105
103
102
101
101
101
99
99
98
97
97
96
96
95
95
94
94
90
89
89
88
87
87
87
86
84
83
82
81
81
77
77
77
75
74
72
72
71
71
69
65
65
62
61
60
59
59
56
56
55
55
53
50
48
47
47
46
46
44
42
42
41
39
39
39
39
39
38
38
38
38
37
36
36
36
35
34
34
33
32
